Problem:    
Rows:       260
Columns:    89 (72 integer, 72 binary)
Non-zeros:  812
Status:     INTEGER OPTIMAL
Objective:  value = 31.521689 (MINimum)

   No.   Row name        Activity     Lower bound   Upper bound
------ ------------    ------------- ------------- -------------
     1 r.5                   1031.52             0               
     2 r.6                  -988.084      -992.134               
     3 r.7                   31.5217             0               
     4 r.8                   11.9156      -980.696               
     5 r.9                   31.5217             0               
     6 r.10                 -991.911      -992.235               
     7 r.11                  1031.52             0               
     8 r.12                 -976.423      -980.833               
     9 r.13                  31.5217             0               
    10 r.14                 -999.196       -999.52               
    11 r.15                  1031.52             0               
    12 r.16                 -995.589      -998.274               
    13 r.17                  31.5217             0               
    14 r.18                 -998.872      -999.196               
    15 r.19                  1031.52             0               
    16 r.20                 -997.315      -997.994               
    17 r.21                  1031.52             0               
    18 r.22                  -995.95      -996.274               
    19 r.23                  31.5217             0               
    20 r.24                  11.9156      -991.321               
    21 r.25                  1031.52             0               
    22 r.26                 -999.676      -999.676               
    23 r.27                  31.5217             0               
    24 r.28                   0.3239      -999.209               
    25 r.29                  1031.52             0               
    26 r.30                 -968.478      -992.055               
    27 r.31                  31.5217             0               
    28 r.32                  31.5217      -978.056               
    29 r.33                  1031.52             0               
    30 r.34                 -976.423      -988.338               
    31 r.35                  31.5217             0               
    32 r.36                  31.5217      -971.166               
    33 r.37                        1             1             = 
    34 r.38                        1             1             = 
    35 r.39                        1             1             = 
    36 r.40                        1             1             = 
    37 r.41                        1             1             = 
    38 r.42                        1             1             = 
    39 r.43                        1             1             = 
    40 r.44                        1             1             = 
    41 r.45                     1001             2               
    42 r.46                    -1001         -1001               
    43 r.47                  996.173      -992.235               
    44 r.48                     1001             2               
    45 r.49                    -1001         -1001               
    46 r.50                  2011.66      -980.833               
    47 r.51                     1001             2               
    48 r.52                    -1001         -1001               
    49 r.53                  988.889       -999.52               
    50 r.54                     1001             2               
    51 r.55                    -1001         -1001               
    52 r.56                  1992.49      -998.274               
    53 r.57                     1001             2               
    54 r.58                    -1001         -1001               
    55 r.59                  989.213      -999.196               
    56 r.60                     1001             2               
    57 r.61                    -1001         -1001               
    58 r.62                  1990.77      -997.994               
    59 r.63                        2             2               
    60 r.64                       -2         -1001               
    61 r.65                 -7.86589      -996.274               
    62 r.66                     1000             2               
    63 r.67                    -1000         -1001               
    64 r.68                     2000      -991.321               
    65 r.69                 -988.408      -992.134               
    66 r.70                  11.5917      -980.696               
    67 r.71                 -988.408      -992.134               
    68 r.72                  11.5917      -980.696               
    69 r.73                 -980.394      -992.055               
    70 r.74                  19.6061      -978.056               
    71 r.75                 -980.394      -992.055               
    72 r.76                  19.6061      -978.056               
    73 r.77                 -988.338      -988.338               
    74 r.78                  19.6061      -971.166               
    75 r.79                 -988.338      -988.338               
    76 r.80                  19.6061      -971.166               
    77 r.81                     1001             2               
    78 r.82                    -1001         -1001               
    79 r.83                  3003.83       7.86589               
    80 r.84                     1001             2               
    81 r.85                    -1001         -1001               
    82 r.86                  1988.34       19.3042               
    83 r.87                     1000             2               
    84 r.88                    -1000         -1001               
    85 r.89                  1992.72       -999.52               
    86 r.90                        2             2               
    87 r.91                       -2         -1001               
    88 r.92                 -19.1665      -998.274               
    89 r.93                     1000             2               
    90 r.94                    -1000         -1001               
    91 r.95                  1993.04      -999.196               
    92 r.96                        2             2               
    93 r.97                       -2         -1001               
    94 r.98                 -20.8924      -997.994               
    95 r.99                     1001             2               
    96 r.100                   -1001         -1001               
    97 r.101                 2995.96      -996.274               
    98 r.102                    1001             2               
    99 r.103                   -1001         -1001               
   100 r.104                 1988.34      -991.321               
   101 r.105                -992.235      -992.235               
   102 r.106                -976.747      -980.833               
   103 r.107                -992.235      -992.235               
   104 r.108                -976.747      -980.833               
   105 r.109                 23.4327      -992.055               
   106 r.110                 1023.43      -978.056               
   107 r.111                -992.055      -992.055               
   108 r.112                  7.9446      -978.056               
   109 r.113                    1001             2               
   110 r.114                   -1001         -1001               
   111 r.115                 3015.49      -988.338               
   112 r.116                    1001             2               
   113 r.117                   -1001         -1001               
   114 r.118                 2007.94      -971.166               
   115 r.119                    1001             2               
   116 r.120                   -1001         -1001               
   117 r.121                 3011.11       7.86589               
   118 r.122                    1001             2               
   119 r.123                   -1001         -1001               
   120 r.124                 2007.51       19.3042               
   121 r.125                    1000             2               
   122 r.126                   -1000         -1001               
   123 r.127                 2007.28       7.76513               
   124 r.128                       2             2               
   125 r.129                      -2         -1001               
   126 r.130                 19.1665       19.1665               
   127 r.131                    1000             2               
   128 r.132                   -1000         -1001               
   129 r.133                 2000.32      -999.196               
   130 r.134                       2             2               
   131 r.135                      -2         -1001               
   132 r.136                 -1.7259      -997.994               
   133 r.137                    1001             2               
   134 r.138                   -1001         -1001               
   135 r.139                 3003.25      -996.274               
   136 r.140                    1001             2               
   137 r.141                   -1001         -1001               
   138 r.142                 2007.51      -991.321               
   139 r.143                 -999.52       -999.52               
   140 r.144                -995.913      -998.274               
   141 r.145                 -999.52       -999.52               
   142 r.146                -995.913      -998.274               
   143 r.147                 30.7174      -992.055               
   144 r.148                 1030.72      -978.056               
   145 r.149                -972.889      -992.055               
   146 r.150                 27.1111      -978.056               
   147 r.151                 22.7728      -988.338               
   148 r.152                 1030.72      -971.166               
   149 r.153                -980.833      -988.338               
   150 r.154                 27.1111      -971.166               
   151 r.155                    1001             2               
   152 r.156                   -1001         -1001               
   153 r.157                 3010.79       7.86589               
   154 r.158                    1001             2               
   155 r.159                   -1001         -1001               
   156 r.160                 2009.23       19.3042               
   157 r.161                    1000             2               
   158 r.162                   -1000         -1001               
   159 r.163                 2006.96       7.76513               
   160 r.164                       2             2               
   161 r.165                      -2         -1001               
   162 r.166                 20.8924       19.1665               
   163 r.167                    1000             2               
   164 r.168                   -1000         -1001               
   165 r.169                 1999.68      0.480375               
   166 r.170                       2             2               
   167 r.171                      -2         -1001               
   168 r.172                  1.7259       1.72589               
   169 r.173                    1001             2               
   170 r.174                   -1001         -1001               
   171 r.175                 3002.92      -996.274               
   172 r.176                    1001             2               
   173 r.177                   -1001         -1001               
   174 r.178                 2009.23      -991.321               
   175 r.179                -999.196      -999.196               
   176 r.180                -997.639      -997.994               
   177 r.181                -999.196      -999.196               
   178 r.182                -997.639      -997.994               
   179 r.183                 30.3933      -992.055               
   180 r.184                 1030.39      -978.056               
   181 r.185                -971.163      -992.055               
   182 r.186                  28.837      -978.056               
   183 r.187                    1001             2               
   184 r.188                   -1001         -1001               
   185 r.189                 3022.45      -988.338               
   186 r.190                    1001             2               
   187 r.191                   -1001         -1001               
   188 r.192                 2028.84      -971.166               
   189 r.193                       2             2               
   190 r.194                      -2         -1001               
   191 r.195                 7.86589       7.86589               
   192 r.196                    1000             2               
   193 r.197                   -1000         -1001               
   194 r.198                    2000       19.3042               
   195 r.199                    1001             2               
   196 r.200                   -1001         -1001               
   197 r.201                 1004.04       7.76513               
   198 r.202                    1001             2               
   199 r.203                   -1001         -1001               
   200 r.204                 2011.66       19.1665               
   201 r.205                    1001             2               
   202 r.206                   -1001         -1001               
   203 r.207                 996.755      0.480375               
   204 r.208                    1001             2               
   205 r.209                   -1001         -1001               
   206 r.210                 1992.49       1.72589               
   207 r.211                    1001             2               
   208 r.212                   -1001         -1001               
   209 r.213                 997.079      0.804486               
   210 r.214                    1001             2               
   211 r.215                   -1001         -1001               
   212 r.216                 1990.77       2.00645               
   213 r.217                -996.274      -996.274               
   214 r.218                 11.5917      -991.321               
   215 r.219                -996.274      -996.274               
   216 r.220                 11.5917      -991.321               
   217 r.221                       2             2               
   218 r.222                      -2         -1001               
   219 r.223                -972.528      -992.055               
   220 r.224                    1000             2               
   221 r.225                   -1000         -1001               
   222 r.226                 2019.61      -978.056               
   223 r.227                -980.473      -988.338               
   224 r.228                  27.472      -971.166               
   225 r.229                -988.338      -988.338               
   226 r.230                 19.6061      -971.166               
   227 r.231                -968.802      -992.055               
   228 r.232                 31.1978      -978.056               
   229 r.233                -968.802      -992.055               
   230 r.234                 31.1978      -978.056               
   231 r.235                       2             2               
   232 r.236                      -2         -1001               
   233 r.237                 972.528        3.7258               
   234 r.238                    1000             2               
   235 r.239                   -1000         -1001               
   236 r.240                 1980.39       8.67872               
   237 r.241                       2             2               
   238 r.242                      -2         -1001               
   239 r.243                 -7.9446      -988.338               
   240 r.244                    1000             2               
   241 r.245                   -1000         -1001               
   242 r.246                    2000      -971.166               
   243 r.247                    1001             2               
   244 r.248                   -1001         -1001               
   245 r.249                 984.512       7.76513               
   246 r.250                    1001             2               
   247 r.251                   -1001         -1001               
   248 r.252                 1992.06       19.1665               
   249 r.253                    1001             2               
   250 r.254                   -1001         -1001               
   251 r.255                 977.551      0.804486               
   252 r.256                    1001             2               
   253 r.257                   -1001         -1001               
   254 r.258                 1971.16       2.00645               
   255 r.259                       2             2               
   256 r.260                      -2         -1001               
   257 r.261                  7.9446        7.9446               
   258 r.262                    1000             2               
   259 r.263                   -1000         -1001               
   260 r.264                    2000       21.9438               

   No. Column name       Activity     Lower bound   Upper bound
------ ------------    ------------- ------------- -------------
     1 tt                    31.5217             0               
     2 s_1_1        *              1             0             1 
     3 t_1_1                 19.6061             0               
     4 s_1_8        *              1             0             1 
     5 s_1_7        *              1             0             1 
     6 s_2_1        *              0             0             1 
     7 t_2_1                 19.6061             0               
     8 s_2_8        *              0             0             1 
     9 s_2_7        *              0             0             1 
    10 s_1_2        *              0             0             1 
    11 t_1_2                 1023.43             0               
    12 s_2_2        *              1             0             1 
    13 t_2_2                  7.9446             0               
    14 s_1_3        *              0             0             1 
    15 t_1_3                 1030.72             0               
    16 s_2_3        *              1             0             1 
    17 t_2_3                 27.1111             0               
    18 s_1_4        *              0             0             1 
    19 t_1_4                 1030.39             0               
    20 s_2_4        *              1             0             1 
    21 t_2_4                  28.837             0               
    22 s_1_5        *              1             0             1 
    23 t_1_5                  27.472             0               
    24 s_2_5        *              0             0             1 
    25 t_2_5                 19.6061             0               
    26 s_1_6        *              1             0             1 
    27 t_1_6                 31.1978             0               
    28 s_2_6        *              0             0             1 
    29 t_2_6                 31.1978             0               
    30 t_1_7                       0             0               
    31 t_2_7                       0             0               
    32 t_1_8                  7.9446             0               
    33 t_2_8                       0             0               
    34 r_1_1_2      *              1             0             1 
    35 u_1_1_2      *              0             0             1 
    36 r_2_1_2      *              1             0             1 
    37 u_2_1_2      *              0             0             1 
    38 r_1_1_3      *              1             0             1 
    39 u_1_1_3      *              0             0             1 
    40 r_2_1_3      *              1             0             1 
    41 u_2_1_3      *              0             0             1 
    42 r_1_1_4      *              1             0             1 
    43 u_1_1_4      *              0             0             1 
    44 r_2_1_4      *              1             0             1 
    45 u_2_1_4      *              0             0             1 
    46 r_1_1_5      *              0             0             1 
    47 u_1_1_5      *              0             0             1 
    48 r_2_1_5      *              1             0             1 
    49 u_2_1_5      *              0             0             1 
    50 r_1_2_3      *              1             0             1 
    51 u_1_2_3      *              0             0             1 
    52 r_2_2_3      *              0             0             1 
    53 u_2_2_3      *              0             0             1 
    54 r_1_2_4      *              1             0             1 
    55 u_1_2_4      *              0             0             1 
    56 r_2_2_4      *              0             0             1 
    57 u_2_2_4      *              0             0             1 
    58 r_1_2_5      *              1             0             1 
    59 u_1_2_5      *              0             0             1 
    60 r_2_2_5      *              1             0             1 
    61 u_2_2_5      *              0             0             1 
    62 r_1_2_8      *              1             0             1 
    63 u_1_2_8      *              0             0             1 
    64 r_2_2_8      *              1             0             1 
    65 u_2_2_8      *              0             0             1 
    66 r_1_3_4      *              1             0             1 
    67 u_1_3_4      *              0             0             1 
    68 r_2_3_4      *              0             0             1 
    69 u_2_3_4      *              0             0             1 
    70 r_1_3_5      *              1             0             1 
    71 u_1_3_5      *              0             0             1 
    72 r_2_3_5      *              1             0             1 
    73 u_2_3_5      *              0             0             1 
    74 r_1_4_5      *              1             0             1 
    75 u_1_4_5      *              0             0             1 
    76 r_2_4_5      *              1             0             1 
    77 u_2_4_5      *              0             0             1 
    78 r_1_4_8      *              1             0             1 
    79 u_1_4_8      *              0             0             1 
    80 r_2_4_8      *              1             0             1 
    81 u_2_4_8      *              0             0             1 
    82 r_1_5_7      *              0             0             1 
    83 u_1_5_7      *              1             0             1 
    84 r_2_5_7      *              1             0             1 
    85 u_2_5_7      *              0             0             1 
    86 r_1_7_8      *              0             0             1 
    87 u_1_7_8      *              0             0             1 
    88 r_2_7_8      *              1             0             1 
    89 u_2_7_8      *              0             0             1 

Integer feasibility conditions:

KKT.PE: max.abs.err = 4.55e-13 on row 79
        max.rel.err = 1.11e-16 on row 12
        High quality

KKT.PB: max.abs.err = 8.88e-16 on row 191
        max.rel.err = 1.00e-16 on row 191
        High quality

End of output
